# avogadro generated ORCA input file 
# PH3+ DUPLETO - FREQ
# 
! WB97X-D3 def2-tzvp OPT FREQ
%maxcore 3000

* xyz 1 2
  P   -1.49001204882609     -0.30892476315604      0.27694850121426
  H   -0.35974050626098      0.41243123471272     -0.09426710350383
  H   -1.43124737796522     -1.64910389006585     -0.09201766150340
  H   -2.68083006694771      0.30952741850917     -0.09066373620703
*
